n = 4;
m = 3;
dias_regimen_alto_permitidos = 2;
porcentaje_regimen_alto = 70;
capacidad = [1000, 300, 500];
costo_produccion = [25, 20, 40];
demanda = [| 150, 120, 100, 180
           | 90, 80, 70, 110
           | 100, 130, 120, 90 |];
pago_por_mw = [50, 60, 70];
G = 50;
